c generated by sgen1
c Command: ./sgen1 -unsat -n 21 
p cnf 21 52
-2 -3 -4 0
-1 -3 -4 0
-1 -2 -4 0
-1 -2 -3 0
-6 -7 -8 0
-5 -7 -8 0
-5 -6 -8 0
-5 -6 -7 0
-10 -11 -12 0
-9 -11 -12 0
-9 -10 -12 0
-9 -10 -11 0
-14 -15 -16 0
-13 -15 -16 0
-13 -14 -16 0
-13 -14 -15 0
-17 -18 -19  0
-17 -18 -20  0
-17 -18 -21  0
-17 -19 -20  0
-17 -19 -21  0
-17 -20 -21  0
-18 -19 -20  0
-18 -19 -21  0
-18 -20 -21  0
-19 -20 -21  0
10 3 18 0
15 3 18 0
15 10 18 0
15 10 3 0
16 17 6 0
4 17 6 0
4 16 6 0
4 16 17 0
21 1 8 0
11 1 8 0
11 21 8 0
11 21 1 0
20 7 12 0
14 7 12 0
14 20 12 0
14 20 7 0
9 5 13  0
9 5 2  0
9 5 19  0
9 13 2  0
9 13 19  0
9 2 19  0
5 13 2  0
5 13 19  0
5 2 19  0
13 2 19  0
